SCIP version 5.0.0 [precision: 8 byte] [memory: block] [mode: optimized] [LP solver: NONE] [GitHash: 3bbd232]
Copyright (C) 2002-2017 Konrad-Zuse-Zentrum fuer Informationstechnik Berlin (ZIB)

External codes: 
  Readline EditLine w  GNU library for command line editing (gnu.org/s/readline)
  CppAD 20160000.1     Algorithmic Differentiation of C++ algorithms developed by B. Bell (www.coin-or.org/CppAD)
  ZLIB 1.2.5           General purpose compression library by J. Gailly and M. Adler (zlib.net)
  GMP 6.1.2            GNU Multiple Precision Arithmetic Library developed by T. Granlund (gmplib.org)

user parameter file <scip.set> not found - using default parameters

read problem <../../Split_data/output/biodeg/8/3_sample_biodeg.logreg>
============

File name	:	../../Split_data/output/biodeg/8/3_sample_biodeg.logreg
Problem name 	:	3_sample_biodeg
Number of data	:	844
Number of var	:	41
The given data has linear dependence
1 sets of column vector are linearly dependent:
{ 19}, 

[dim=1] time: 0.029091
[dim=2] time: 0.067303
[dim=3] time: 0.106157
[dim=4] time: 0.135335
[dim=5] time: 0.166501
[dim=6] time: 0.197083
[dim=7] time: 0.226684
[dim=8] time: 0.255269
[dim=9] time: 0.281958
[dim=10] time: 0.307817
[dim=11] time: 0.324032
[dim=12] time: 0.339715
[dim=13] time: 0.358128
[dim=14] time: 0.386217
[dim=15] time: 0.402704
[dim=16] time: 0.42992
[dim=17] time: 0.487148
[dim=18] time: 0.503336
[dim=19] time: 0.517252
[dim=20] time: 0.529709
[dim=21] time: 0.549737
[dim=22] time: 0.56218
[dim=23] time: 0.576387
[dim=24] Time of forward = 0.5902sec.
AIC: 524.077
k: 23

[dim=40] time: 0.138889
[dim=39] time: 0.23039
[dim=38] time: 0.274655
[dim=37] time: 0.314347
[dim=36] time: 0.349355
[dim=35] time: 0.391932
[dim=34] time: 0.445415
[dim=33] time: 0.488921
[dim=32] time: 0.526207
[dim=31] time: 0.568415
[dim=30] time: 0.648993
[dim=29] time: 0.738262
[dim=28] time: 0.768582
[dim=27] time: 0.79684
[dim=26] time: 0.827998
[dim=25] time: 0.85414
[dim=24] time: 0.898062
[dim=23] time: 0.925895
[dim=22] Time of backward = 0.950177sec.
AIC: 522.572
k: 23
